<number of tasks>
28

<cycle time>
216

<task times>
1 70
2 59
3 33
4 6
5 1
6 27
7 17
8 62
9 31
10 53
11 21
12 19
13 108
14 52
15 5
16 8
17 97
18 8
19 47
20 67
21 17
22 8
23 3
24 21
25 107
26 3
27 2
28 72

<precedence relations>
1,2
1,3
1,4
1,5
1,8
1,19
1,21
1,22
1,23
1,24
1,26
2,6
2,17
3,28
4,28
5,28
6,7
7,18
8,9
9,10
10,11
10,12
11,15
12,13
13,14
13,16
14,28
15,28
16,28
17,28
18,28
19,20
20,28
21,28
22,28
23,28
24,25
25,28
26,27
27,28

<setup times forward>
1,2:14
1,3:6
1,4:5
1,5:3
1,8:13
1,19:3
1,21:9
1,22:13
1,23:8
1,24:4
1,26:14
2,3:20
2,4:9
2,5:11
2,6:22
2,8:27
2,9:7
2,10:20
2,11:31
2,12:16
2,13:11
2,14:4
2,15:33
2,16:31
2,17:1
2,19:11
2,20:4
2,21:5
2,22:27
2,23:6
2,24:18
2,25:21
2,26:28
2,27:35
3,2:20
3,4:11
3,5:9
3,6:2
3,7:5
3,8:7
3,9:13
3,11:11
3,12:4
3,13:9
3,14:16
3,15:13
3,16:11
3,17:19
3,18:2
3,19:9
3,20:16
3,21:15
3,22:7
3,23:14
3,24:2
3,25:1
3,26:8
3,27:15
3,28:9
4,2:9
4,3:11
4,5:2
4,6:13
4,7:6
4,8:18
4,9:2
4,10:11
4,11:22
4,12:7
4,13:2
4,14:5
4,15:24
4,16:22
4,17:8
4,18:9
4,19:2
4,20:5
4,21:4
4,22:18
4,23:3
4,24:9
4,25:12
4,26:19
4,27:26
4,28:2
5,2:11
5,3:9
5,4:2
5,6:11
5,7:4
5,8:16
5,9:4
5,10:9
5,11:20
5,12:5
5,14:7
5,15:22
5,16:20
5,17:10
5,18:7
5,20:7
5,21:6
5,22:16
5,23:5
5,24:7
5,25:10
5,26:17
5,27:24
6,3:2
6,4:13
6,5:11
6,7:7
6,8:5
6,9:15
6,10:2
6,11:9
6,12:6
6,13:11
6,14:18
6,15:11
6,16:9
6,17:21
6,19:11
6,20:18
6,21:17
6,22:5
6,23:16
6,24:4
6,25:1
6,26:6
6,27:13
7,3:5
7,4:6
7,5:4
7,8:12
7,9:8
7,10:5
7,11:16
7,12:1
7,13:4
7,14:11
7,15:18
7,16:16
7,17:14
7,18:3
7,19:4
7,20:11
7,21:10
7,22:12
7,23:9
7,24:3
7,25:6
7,26:13
7,27:20
8,2:27
8,3:7
8,4:18
8,5:16
8,6:5
8,7:12
8,9:20
8,17:26
8,18:9
8,19:16
8,20:23
8,21:22
8,23:21
8,24:9
8,25:6
8,26:1
8,27:8
9,2:7
9,3:13
9,4:2
9,5:4
9,6:15
9,7:8
9,10:13
9,17:6
9,18:11
9,19:4
9,20:3
9,21:2
9,22:20
9,23:1
9,24:11
9,25:14
9,26:21
9,27:28
10,2:20
10,4:11
10,5:9
10,6:2
10,7:5
10,11:11
10,12:4
10,17:19
10,18:2
10,19:9
10,20:16
10,21:15
10,22:7
10,23:14
10,24:2
10,25:1
10,26:8
10,27:15
11,2:31
11,3:11
11,4:22
11,5:20
11,6:9
11,7:16
11,12:15
11,13:20
11,14:27
11,15:2
11,17:30
11,18:13
11,19:20
11,20:27
11,21:26
11,22:4
11,23:25
11,24:13
11,25:10
11,26:3
11,27:4
12,2:16
12,3:4
12,4:7
12,5:5
12,6:6
12,7:1
12,11:15
12,13:5
12,15:17
12,17:15
12,18:2
12,19:5
12,20:12
12,21:11
12,22:11
12,23:10
12,24:2
12,25:5
12,26:12
12,27:19
13,2:11
13,3:9
13,4:2
13,6:11
13,7:4
13,11:20
13,14:7
13,15:22
13,16:20
13,17:10
13,18:7
13,20:7
13,21:6
13,22:16
13,23:5
13,24:7
13,25:10
13,26:17
13,27:24
14,2:4
14,3:16
14,4:5
14,5:7
14,6:18
14,7:11
14,11:27
14,15:29
14,16:27
14,17:3
14,18:14
14,19:7
14,21:1
14,22:23
14,23:2
14,24:14
14,25:17
14,26:24
14,27:31
14,28:7
15,2:33
15,3:13
15,4:24
15,5:22
15,6:11
15,7:18
15,12:17
15,13:22
15,14:29
15,16:2
15,17:32
15,18:15
15,19:22
15,20:29
15,21:28
15,22:6
15,23:27
15,24:15
15,25:12
15,26:5
15,27:2
15,28:22
16,2:31
16,3:11
16,4:22
16,5:20
16,6:9
16,7:16
16,14:27
16,15:2
16,17:30
16,18:13
16,19:20
16,20:27
16,21:26
16,22:4
16,23:25
16,24:13
16,25:10
16,26:3
16,27:4
16,28:20
17,3:19
17,4:8
17,5:10
17,6:21
17,7:14
17,8:26
17,9:6
17,10:19
17,11:30
17,12:15
17,13:10
17,14:3
17,15:32
17,16:30
17,18:17
17,19:10
17,20:3
17,21:4
17,22:26
17,23:5
17,24:17
17,25:20
17,26:27
17,27:34
17,28:10
18,3:2
18,4:9
18,5:7
18,8:9
18,9:11
18,10:2
18,11:13
18,12:2
18,13:7
18,14:14
18,15:15
18,16:13
18,17:17
18,19:7
18,20:14
18,21:13
18,22:9
18,23:12
18,25:3
18,26:10
18,27:17
18,28:7
19,2:11
19,3:9
19,4:2
19,6:11
19,7:4
19,8:16
19,9:4
19,10:9
19,11:20
19,12:5
19,14:7
19,15:22
19,16:20
19,17:10
19,18:7
19,20:7
19,21:6
19,22:16
19,23:5
19,24:7
19,25:10
19,26:17
19,27:24
20,2:4
20,3:16
20,4:5
20,5:7
20,6:18
20,7:11
20,8:23
20,9:3
20,10:16
20,11:27
20,12:12
20,13:7
20,15:29
20,16:27
20,17:3
20,18:14
20,21:1
20,22:23
20,23:2
20,24:14
20,25:17
20,26:24
20,27:31
20,28:7
21,2:5
21,3:15
21,4:4
21,5:6
21,6:17
21,7:10
21,8:22
21,9:2
21,10:15
21,11:26
21,12:11
21,13:6
21,14:1
21,15:28
21,16:26
21,17:4
21,18:13
21,19:6
21,20:1
21,22:22
21,23:1
21,24:13
21,25:16
21,26:23
21,27:30
21,28:6
22,2:27
22,3:7
22,4:18
22,5:16
22,6:5
22,7:12
22,9:20
22,10:7
22,11:4
22,12:11
22,13:16
22,14:23
22,15:6
22,16:4
22,17:26
22,18:9
22,19:16
22,20:23
22,21:22
22,23:21
22,24:9
22,25:6
22,26:1
22,27:8
22,28:16
23,2:6
23,3:14
23,4:3
23,5:5
23,6:16
23,7:9
23,8:21
23,9:1
23,10:14
23,11:25
23,12:10
23,13:5
23,14:2
23,15:27
23,16:25
23,17:5
23,18:12
23,19:5
23,20:2
23,21:1
23,22:21
23,24:12
23,25:15
23,26:22
23,27:29
23,28:5
24,2:18
24,3:2
24,4:9
24,5:7
24,6:4
24,7:3
24,8:9
24,9:11
24,10:2
24,11:13
24,12:2
24,13:7
24,14:14
24,15:15
24,16:13
24,17:17
24,19:7
24,20:14
24,21:13
24,22:9
24,23:12
24,25:3
24,26:10
24,27:17
25,2:21
25,3:1
25,4:12
25,5:10
25,6:1
25,7:6
25,8:6
25,9:14
25,10:1
25,11:10
25,12:5
25,13:10
25,14:17
25,15:12
25,16:10
25,17:20
25,18:3
25,19:10
25,20:17
25,21:16
25,22:6
25,23:15
25,26:7
25,27:14
25,28:10
26,2:28
26,3:8
26,4:19
26,5:17
26,6:6
26,7:13
26,8:1
26,9:21
26,10:8
26,11:3
26,12:12
26,13:17
26,14:24
26,15:5
26,16:3
26,17:27
26,18:10
26,19:17
26,20:24
26,21:23
26,22:1
26,23:22
26,24:10
26,25:7
26,27:7
27,2:35
27,3:15
27,4:26
27,5:24
27,6:13
27,7:20
27,8:8
27,9:28
27,10:15
27,11:4
27,12:19
27,13:24
27,14:31
27,15:2
27,16:4
27,17:34
27,18:17
27,19:24
27,20:31
27,21:30
27,22:8
27,23:29
27,24:17
27,25:14
27,28:24

<setup times backward>
1,1:36
2,1:50
2,2:36
2,3:56
2,4:45
2,5:47
2,8:63
2,9:43
2,10:56
2,11:67
2,12:52
2,13:47
2,14:40
2,15:69
2,16:67
2,19:47
2,20:40
2,21:41
2,22:63
2,23:42
2,24:54
2,25:57
2,26:64
2,27:71
3,1:30
3,2:16
3,3:36
3,4:25
3,5:27
3,6:38
3,7:31
3,8:43
3,9:23
3,10:36
3,11:47
3,12:32
3,13:27
3,14:20
3,15:49
3,16:47
3,17:17
3,18:34
3,19:27
3,20:20
3,21:21
3,22:43
3,23:22
3,24:34
3,25:37
3,26:44
3,27:51
4,1:41
4,2:27
4,3:47
4,4:36
4,5:38
4,6:49
4,7:42
4,8:54
4,9:34
4,10:47
4,11:58
4,12:43
4,13:38
4,14:31
4,15:60
4,16:58
4,17:28
4,18:45
4,19:38
4,20:31
4,21:32
4,22:54
4,23:33
4,24:45
4,25:48
4,26:55
4,27:62
5,1:39
5,2:25
5,3:45
5,4:34
5,5:36
5,6:47
5,7:40
5,8:52
5,9:32
5,10:45
5,11:56
5,12:41
5,13:36
5,14:29
5,15:58
5,16:56
5,17:26
5,18:43
5,19:36
5,20:29
5,21:30
5,22:52
5,23:31
5,24:43
5,25:46
5,26:53
5,27:60
6,1:28
6,2:14
6,3:34
6,4:23
6,5:25
6,6:36
6,8:41
6,9:21
6,10:34
6,11:45
6,12:30
6,13:25
6,14:18
6,15:47
6,16:45
6,17:15
6,19:25
6,20:18
6,21:19
6,22:41
6,23:20
6,24:32
6,25:35
6,26:42
6,27:49
7,1:35
7,2:21
7,3:41
7,4:30
7,5:32
7,6:43
7,7:36
7,8:48
7,9:28
7,10:41
7,11:52
7,12:37
7,13:32
7,14:25
7,15:54
7,16:52
7,17:22
7,19:32
7,20:25
7,21:26
7,22:48
7,23:27
7,24:39
7,25:42
7,26:49
7,27:56
8,1:23
8,2:9
8,3:29
8,4:18
8,5:20
8,6:31
8,7:24
8,8:36
8,17:10
8,18:27
8,19:20
8,20:13
8,21:14
8,22:36
8,23:15
8,24:27
8,25:30
8,26:37
8,27:44
9,1:43
9,2:29
9,3:49
9,4:38
9,5:40
9,6:51
9,7:44
9,8:56
9,9:36
9,17:30
9,18:47
9,19:40
9,20:33
9,21:34
9,22:56
9,23:35
9,24:47
9,25:50
9,26:57
9,27:64
10,1:30
10,2:16
10,3:36
10,4:25
10,5:27
10,6:38
10,7:31
10,8:43
10,9:23
10,10:36
10,17:17
10,18:34
10,19:27
10,20:20
10,21:21
10,22:43
10,23:22
10,24:34
10,25:37
10,26:44
10,27:51
11,1:19
11,2:5
11,3:25
11,4:14
11,5:16
11,6:27
11,7:20
11,8:32
11,9:12
11,10:25
11,11:36
11,12:21
11,13:16
11,14:9
11,16:36
11,17:6
11,18:23
11,19:16
11,20:9
11,21:10
11,22:32
11,23:11
11,24:23
11,25:26
11,26:33
11,27:40
12,1:34
12,2:20
12,3:40
12,4:29
12,5:31
12,6:42
12,7:35
12,8:47
12,9:27
12,10:40
12,11:51
12,12:36
12,15:53
12,17:21
12,18:38
12,19:31
12,20:24
12,21:25
12,22:47
12,23:26
12,24:38
12,25:41
12,26:48
12,27:55
13,1:39
13,2:25
13,3:45
13,4:34
13,5:36
13,6:47
13,7:40
13,8:52
13,9:32
13,10:45
13,11:56
13,12:41
13,13:36
13,15:58
13,17:26
13,18:43
13,19:36
13,20:29
13,21:30
13,22:52
13,23:31
13,24:43
13,25:46
13,26:53
13,27:60
14,1:46
14,2:32
14,3:52
14,4:41
14,5:43
14,6:54
14,7:47
14,8:59
14,9:39
14,10:52
14,11:63
14,12:48
14,13:43
14,14:36
14,15:65
14,16:63
14,17:33
14,18:50
14,19:43
14,20:36
14,21:37
14,22:59
14,23:38
14,24:50
14,25:53
14,26:60
14,27:67
15,1:17
15,2:3
15,3:23
15,4:12
15,5:14
15,6:25
15,7:18
15,8:30
15,9:10
15,10:23
15,11:34
15,12:19
15,13:14
15,14:7
15,15:36
15,16:34
15,17:4
15,18:21
15,19:14
15,20:7
15,21:8
15,22:30
15,23:9
15,24:21
15,25:24
15,26:31
15,27:38
16,1:19
16,2:5
16,3:25
16,4:14
16,5:16
16,6:27
16,7:20
16,8:32
16,9:12
16,10:25
16,11:36
16,12:21
16,13:16
16,14:9
16,15:38
16,16:36
16,17:6
16,18:23
16,19:16
16,20:9
16,21:10
16,22:32
16,23:11
16,24:23
16,25:26
16,26:33
16,27:40
17,1:49
17,2:35
17,3:55
17,4:44
17,5:46
17,6:57
17,7:50
17,8:62
17,9:42
17,10:55
17,11:66
17,12:51
17,13:46
17,14:39
17,15:68
17,16:66
17,17:36
17,18:53
17,19:46
17,20:39
17,21:40
17,22:62
17,23:41
17,24:53
17,25:56
17,26:63
17,27:70
18,1:32
18,2:18
18,3:38
18,4:27
18,5:29
18,6:40
18,7:33
18,8:45
18,9:25
18,10:38
18,11:49
18,12:34
18,13:29
18,14:22
18,15:51
18,16:49
18,17:19
18,18:36
18,19:29
18,20:22
18,21:23
18,22:45
18,23:24
18,24:36
18,25:39
18,26:46
18,27:53
19,1:39
19,2:25
19,3:45
19,4:34
19,5:36
19,6:47
19,7:40
19,8:52
19,9:32
19,10:45
19,11:56
19,12:41
19,13:36
19,14:29
19,15:58
19,16:56
19,17:26
19,18:43
19,19:36
19,21:30
19,22:52
19,23:31
19,24:43
19,25:46
19,26:53
19,27:60
20,1:46
20,2:32
20,3:52
20,4:41
20,5:43
20,6:54
20,7:47
20,8:59
20,9:39
20,10:52
20,11:63
20,12:48
20,13:43
20,14:36
20,15:65
20,16:63
20,17:33
20,18:50
20,19:43
20,20:36
20,21:37
20,22:59
20,23:38
20,24:50
20,25:53
20,26:60
20,27:67
21,1:45
21,2:31
21,3:51
21,4:40
21,5:42
21,6:53
21,7:46
21,8:58
21,9:38
21,10:51
21,11:62
21,12:47
21,13:42
21,14:35
21,15:64
21,16:62
21,17:32
21,18:49
21,19:42
21,20:35
21,21:36
21,22:58
21,23:37
21,24:49
21,25:52
21,26:59
21,27:66
22,1:23
22,2:9
22,3:29
22,4:18
22,5:20
22,6:31
22,7:24
22,8:36
22,9:16
22,10:29
22,11:40
22,12:25
22,13:20
22,14:13
22,15:42
22,16:40
22,17:10
22,18:27
22,19:20
22,20:13
22,21:14
22,22:36
22,23:15
22,24:27
22,25:30
22,26:37
22,27:44
23,1:44
23,2:30
23,3:50
23,4:39
23,5:41
23,6:52
23,7:45
23,8:57
23,9:37
23,10:50
23,11:61
23,12:46
23,13:41
23,14:34
23,15:63
23,16:61
23,17:31
23,18:48
23,19:41
23,20:34
23,21:35
23,22:57
23,23:36
23,24:48
23,25:51
23,26:58
23,27:65
24,1:32
24,2:18
24,3:38
24,4:27
24,5:29
24,6:40
24,7:33
24,8:45
24,9:25
24,10:38
24,11:49
24,12:34
24,13:29
24,14:22
24,15:51
24,16:49
24,17:19
24,18:36
24,19:29
24,20:22
24,21:23
24,22:45
24,23:24
24,24:36
24,26:46
24,27:53
25,1:29
25,2:15
25,3:35
25,4:24
25,5:26
25,6:37
25,7:30
25,8:42
25,9:22
25,10:35
25,11:46
25,12:31
25,13:26
25,14:19
25,15:48
25,16:46
25,17:16
25,18:33
25,19:26
25,20:19
25,21:20
25,22:42
25,23:21
25,24:33
25,25:36
25,26:43
25,27:50
26,1:22
26,2:8
26,3:28
26,4:17
26,5:19
26,6:30
26,7:23
26,8:35
26,9:15
26,10:28
26,11:39
26,12:24
26,13:19
26,14:12
26,15:41
26,16:39
26,17:9
26,18:26
26,19:19
26,20:12
26,21:13
26,22:35
26,23:14
26,24:26
26,25:29
26,26:36
27,1:15
27,2:1
27,3:21
27,4:10
27,5:12
27,6:23
27,7:16
27,8:28
27,9:8
27,10:21
27,11:32
27,12:17
27,13:12
27,14:5
27,15:34
27,16:32
27,17:2
27,18:19
27,19:12
27,20:5
27,21:6
27,22:28
27,23:7
27,24:19
27,25:22
27,26:29
27,27:36
28,1:39
28,2:25
28,3:45
28,4:34
28,5:36
28,6:47
28,7:40
28,8:52
28,9:32
28,10:45
28,11:56
28,12:41
28,13:36
28,14:29
28,15:58
28,16:56
28,17:26
28,18:43
28,19:36
28,20:29
28,21:30
28,22:52
28,23:31
28,24:43
28,25:46
28,26:53
28,27:60
28,28:36

<end>

<optimal SALBP-1 value>
5


<rand seed>
467321153

<Lower Bounds>
Lm1=5
Lms1=5
Lm2=1
Lm3=2
Lm4=5
Best=5

<Optimal Stations (Iterations: 10)>
8
